17	4
25	21	26	21	
0	0	0	0	0	3	2	3	4	
9	0	8	5	4	3	5	7	10	
5	7	0	8	7	3	5	17	17	
3	0	0	7	2	3	6	16	17	
3	8	3	0	4	3	9	17	17	
100	3	5	2	1	3	8	10	13	
125	7	3	5	10	3	12	17	17	
100	6	8	2	0	3	11	14	15	
225	0	6	10	9	1	17	
225	6	9	8	7	3	11	12	15	
200	0	4	0	7	1	17	
100	1	0	10	7	2	17	17	
5	7	9	9	3	2	17	17	
4	9	1	2	2	3	17	17	17	
6	7	9	2	8	2	17	17	
3	7	6	3	0	1	17	
0	0	0	0	0	0	
